20 19

14 3 19 12 15 8 10 15 17 10 11 6
18 8 9 13 1 3 5 10
8 10 5 10 14 14 17 7
18 10 9 6 19 11 17 9 4 9 14 11
2 12 17 9 15 2 18 3 1 15
19 10 8 2 9 9 6 10 14 11
4 2 2 2 1 14 8 9
16 5 1 10 18 2 9 14 19 10
1 5 3 5 5 3 18 8 13 6 10 8
19 14 2 7 1 9 11 15 17 15 14 5
13 5 8 12 19 2 11 11 16 7 3 7
5 13 2 14 7 9 12 8
8 10 2 11 19 5 3 8 5 5 12 10
13 8 2 5 15 7 1 10 8 7
11 6 4 4 14 3 8 9
16 12 3 4 4 7 13 7
4 7 15 11 7 13 9 8 5 10 10 12
14 4 13 3 8 10 18 8
4 14 6 13 17 7 18 8 2 5 16 7
14 12 1 15 5 10 16 14
